c 
c 
c Ce fichier a ete genere automatiquement par le programme les_axiomes_universels.py
c Il contient les axiomes universels pour le jeu Hitman
c Il contient egalement les deductions ajoutees a chaque tour
c Il correspond a un plateau de taille 4x4
c 
c 
p cnf 16 580
-3 -2 -1 0
-4 -2 -1 0
-5 -2 -1 0
-6 -2 -1 0
-7 -2 -1 0
-8 -2 -1 0
-9 -2 -1 0
-10 -2 -1 0
-11 -2 -1 0
-12 -2 -1 0
-13 -2 -1 0
-14 -2 -1 0
-15 -2 -1 0
-16 -2 -1 0
-4 -3 -1 0
-5 -3 -1 0
-6 -3 -1 0
-7 -3 -1 0
-8 -3 -1 0
-9 -3 -1 0
-10 -3 -1 0
-11 -3 -1 0
-12 -3 -1 0
-13 -3 -1 0
-14 -3 -1 0
-15 -3 -1 0
-16 -3 -1 0
-5 -4 -1 0
-6 -4 -1 0
-7 -4 -1 0
-8 -4 -1 0
-9 -4 -1 0
-10 -4 -1 0
-11 -4 -1 0
-12 -4 -1 0
-13 -4 -1 0
-14 -4 -1 0
-15 -4 -1 0
-16 -4 -1 0
-6 -5 -1 0
-7 -5 -1 0
-8 -5 -1 0
-9 -5 -1 0
-10 -5 -1 0
-11 -5 -1 0
-12 -5 -1 0
-13 -5 -1 0
-14 -5 -1 0
-15 -5 -1 0
-16 -5 -1 0
-7 -6 -1 0
-8 -6 -1 0
-9 -6 -1 0
-10 -6 -1 0
-11 -6 -1 0
-12 -6 -1 0
-13 -6 -1 0
-14 -6 -1 0
-15 -6 -1 0
-16 -6 -1 0
-8 -7 -1 0
-9 -7 -1 0
-10 -7 -1 0
-11 -7 -1 0
-12 -7 -1 0
-13 -7 -1 0
-14 -7 -1 0
-15 -7 -1 0
-16 -7 -1 0
-9 -8 -1 0
-10 -8 -1 0
-11 -8 -1 0
-12 -8 -1 0
-13 -8 -1 0
-14 -8 -1 0
-15 -8 -1 0
-16 -8 -1 0
-10 -9 -1 0
-11 -9 -1 0
-12 -9 -1 0
-13 -9 -1 0
-14 -9 -1 0
-15 -9 -1 0
-16 -9 -1 0
-11 -10 -1 0
-12 -10 -1 0
-13 -10 -1 0
-14 -10 -1 0
-15 -10 -1 0
-16 -10 -1 0
-12 -11 -1 0
-13 -11 -1 0
-14 -11 -1 0
-15 -11 -1 0
-16 -11 -1 0
-13 -12 -1 0
-14 -12 -1 0
-15 -12 -1 0
-16 -12 -1 0
-14 -13 -1 0
-15 -13 -1 0
-16 -13 -1 0
-15 -14 -1 0
-16 -14 -1 0
-16 -15 -1 0
-4 -3 -2 0
-5 -3 -2 0
-6 -3 -2 0
-7 -3 -2 0
-8 -3 -2 0
-9 -3 -2 0
-10 -3 -2 0
-11 -3 -2 0
-12 -3 -2 0
-13 -3 -2 0
-14 -3 -2 0
-15 -3 -2 0
-16 -3 -2 0
-5 -4 -2 0
-6 -4 -2 0
-7 -4 -2 0
-8 -4 -2 0
-9 -4 -2 0
-10 -4 -2 0
-11 -4 -2 0
-12 -4 -2 0
-13 -4 -2 0
-14 -4 -2 0
-15 -4 -2 0
-16 -4 -2 0
-6 -5 -2 0
-7 -5 -2 0
-8 -5 -2 0
-9 -5 -2 0
-10 -5 -2 0
-11 -5 -2 0
-12 -5 -2 0
-13 -5 -2 0
-14 -5 -2 0
-15 -5 -2 0
-16 -5 -2 0
-7 -6 -2 0
-8 -6 -2 0
-9 -6 -2 0
-10 -6 -2 0
-11 -6 -2 0
-12 -6 -2 0
-13 -6 -2 0
-14 -6 -2 0
-15 -6 -2 0
-16 -6 -2 0
-8 -7 -2 0
-9 -7 -2 0
-10 -7 -2 0
-11 -7 -2 0
-12 -7 -2 0
-13 -7 -2 0
-14 -7 -2 0
-15 -7 -2 0
-16 -7 -2 0
-9 -8 -2 0
-10 -8 -2 0
-11 -8 -2 0
-12 -8 -2 0
-13 -8 -2 0
-14 -8 -2 0
-15 -8 -2 0
-16 -8 -2 0
-10 -9 -2 0
-11 -9 -2 0
-12 -9 -2 0
-13 -9 -2 0
-14 -9 -2 0
-15 -9 -2 0
-16 -9 -2 0
-11 -10 -2 0
-12 -10 -2 0
-13 -10 -2 0
-14 -10 -2 0
-15 -10 -2 0
-16 -10 -2 0
-12 -11 -2 0
-13 -11 -2 0
-14 -11 -2 0
-15 -11 -2 0
-16 -11 -2 0
-13 -12 -2 0
-14 -12 -2 0
-15 -12 -2 0
-16 -12 -2 0
-14 -13 -2 0
-15 -13 -2 0
-16 -13 -2 0
-15 -14 -2 0
-16 -14 -2 0
-16 -15 -2 0
-5 -4 -3 0
-6 -4 -3 0
-7 -4 -3 0
-8 -4 -3 0
-9 -4 -3 0
-10 -4 -3 0
-11 -4 -3 0
-12 -4 -3 0
-13 -4 -3 0
-14 -4 -3 0
-15 -4 -3 0
-16 -4 -3 0
-6 -5 -3 0
-7 -5 -3 0
-8 -5 -3 0
-9 -5 -3 0
-10 -5 -3 0
-11 -5 -3 0
-12 -5 -3 0
-13 -5 -3 0
-14 -5 -3 0
-15 -5 -3 0
-16 -5 -3 0
-7 -6 -3 0
-8 -6 -3 0
-9 -6 -3 0
-10 -6 -3 0
-11 -6 -3 0
-12 -6 -3 0
-13 -6 -3 0
-14 -6 -3 0
-15 -6 -3 0
-16 -6 -3 0
-8 -7 -3 0
-9 -7 -3 0
-10 -7 -3 0
-11 -7 -3 0
-12 -7 -3 0
-13 -7 -3 0
-14 -7 -3 0
-15 -7 -3 0
-16 -7 -3 0
-9 -8 -3 0
-10 -8 -3 0
-11 -8 -3 0
-12 -8 -3 0
-13 -8 -3 0
-14 -8 -3 0
-15 -8 -3 0
-16 -8 -3 0
-10 -9 -3 0
-11 -9 -3 0
-12 -9 -3 0
-13 -9 -3 0
-14 -9 -3 0
-15 -9 -3 0
-16 -9 -3 0
-11 -10 -3 0
-12 -10 -3 0
-13 -10 -3 0
-14 -10 -3 0
-15 -10 -3 0
-16 -10 -3 0
-12 -11 -3 0
-13 -11 -3 0
-14 -11 -3 0
-15 -11 -3 0
-16 -11 -3 0
-13 -12 -3 0
-14 -12 -3 0
-15 -12 -3 0
-16 -12 -3 0
-14 -13 -3 0
-15 -13 -3 0
-16 -13 -3 0
-15 -14 -3 0
-16 -14 -3 0
-16 -15 -3 0
-6 -5 -4 0
-7 -5 -4 0
-8 -5 -4 0
-9 -5 -4 0
-10 -5 -4 0
-11 -5 -4 0
-12 -5 -4 0
-13 -5 -4 0
-14 -5 -4 0
-15 -5 -4 0
-16 -5 -4 0
-7 -6 -4 0
-8 -6 -4 0
-9 -6 -4 0
-10 -6 -4 0
-11 -6 -4 0
-12 -6 -4 0
-13 -6 -4 0
-14 -6 -4 0
-15 -6 -4 0
-16 -6 -4 0
-8 -7 -4 0
-9 -7 -4 0
-10 -7 -4 0
-11 -7 -4 0
-12 -7 -4 0
-13 -7 -4 0
-14 -7 -4 0
-15 -7 -4 0
-16 -7 -4 0
-9 -8 -4 0
-10 -8 -4 0
-11 -8 -4 0
-12 -8 -4 0
-13 -8 -4 0
-14 -8 -4 0
-15 -8 -4 0
-16 -8 -4 0
-10 -9 -4 0
-11 -9 -4 0
-12 -9 -4 0
-13 -9 -4 0
-14 -9 -4 0
-15 -9 -4 0
-16 -9 -4 0
-11 -10 -4 0
-12 -10 -4 0
-13 -10 -4 0
-14 -10 -4 0
-15 -10 -4 0
-16 -10 -4 0
-12 -11 -4 0
-13 -11 -4 0
-14 -11 -4 0
-15 -11 -4 0
-16 -11 -4 0
-13 -12 -4 0
-14 -12 -4 0
-15 -12 -4 0
-16 -12 -4 0
-14 -13 -4 0
-15 -13 -4 0
-16 -13 -4 0
-15 -14 -4 0
-16 -14 -4 0
-16 -15 -4 0
-7 -6 -5 0
-8 -6 -5 0
-9 -6 -5 0
-10 -6 -5 0
-11 -6 -5 0
-12 -6 -5 0
-13 -6 -5 0
-14 -6 -5 0
-15 -6 -5 0
-16 -6 -5 0
-8 -7 -5 0
-9 -7 -5 0
-10 -7 -5 0
-11 -7 -5 0
-12 -7 -5 0
-13 -7 -5 0
-14 -7 -5 0
-15 -7 -5 0
-16 -7 -5 0
-9 -8 -5 0
-10 -8 -5 0
-11 -8 -5 0
-12 -8 -5 0
-13 -8 -5 0
-14 -8 -5 0
-15 -8 -5 0
-16 -8 -5 0
-10 -9 -5 0
-11 -9 -5 0
-12 -9 -5 0
-13 -9 -5 0
-14 -9 -5 0
-15 -9 -5 0
-16 -9 -5 0
-11 -10 -5 0
-12 -10 -5 0
-13 -10 -5 0
-14 -10 -5 0
-15 -10 -5 0
-16 -10 -5 0
-12 -11 -5 0
-13 -11 -5 0
-14 -11 -5 0
-15 -11 -5 0
-16 -11 -5 0
-13 -12 -5 0
-14 -12 -5 0
-15 -12 -5 0
-16 -12 -5 0
-14 -13 -5 0
-15 -13 -5 0
-16 -13 -5 0
-15 -14 -5 0
-16 -14 -5 0
-16 -15 -5 0
-8 -7 -6 0
-9 -7 -6 0
-10 -7 -6 0
-11 -7 -6 0
-12 -7 -6 0
-13 -7 -6 0
-14 -7 -6 0
-15 -7 -6 0
-16 -7 -6 0
-9 -8 -6 0
-10 -8 -6 0
-11 -8 -6 0
-12 -8 -6 0
-13 -8 -6 0
-14 -8 -6 0
-15 -8 -6 0
-16 -8 -6 0
-10 -9 -6 0
-11 -9 -6 0
-12 -9 -6 0
-13 -9 -6 0
-14 -9 -6 0
-15 -9 -6 0
-16 -9 -6 0
-11 -10 -6 0
-12 -10 -6 0
-13 -10 -6 0
-14 -10 -6 0
-15 -10 -6 0
-16 -10 -6 0
-12 -11 -6 0
-13 -11 -6 0
-14 -11 -6 0
-15 -11 -6 0
-16 -11 -6 0
-13 -12 -6 0
-14 -12 -6 0
-15 -12 -6 0
-16 -12 -6 0
-14 -13 -6 0
-15 -13 -6 0
-16 -13 -6 0
-15 -14 -6 0
-16 -14 -6 0
-16 -15 -6 0
-9 -8 -7 0
-10 -8 -7 0
-11 -8 -7 0
-12 -8 -7 0
-13 -8 -7 0
-14 -8 -7 0
-15 -8 -7 0
-16 -8 -7 0
-10 -9 -7 0
-11 -9 -7 0
-12 -9 -7 0
-13 -9 -7 0
-14 -9 -7 0
-15 -9 -7 0
-16 -9 -7 0
-11 -10 -7 0
-12 -10 -7 0
-13 -10 -7 0
-14 -10 -7 0
-15 -10 -7 0
-16 -10 -7 0
-12 -11 -7 0
-13 -11 -7 0
-14 -11 -7 0
-15 -11 -7 0
-16 -11 -7 0
-13 -12 -7 0
-14 -12 -7 0
-15 -12 -7 0
-16 -12 -7 0
-14 -13 -7 0
-15 -13 -7 0
-16 -13 -7 0
-15 -14 -7 0
-16 -14 -7 0
-16 -15 -7 0
-10 -9 -8 0
-11 -9 -8 0
-12 -9 -8 0
-13 -9 -8 0
-14 -9 -8 0
-15 -9 -8 0
-16 -9 -8 0
-11 -10 -8 0
-12 -10 -8 0
-13 -10 -8 0
-14 -10 -8 0
-15 -10 -8 0
-16 -10 -8 0
-12 -11 -8 0
-13 -11 -8 0
-14 -11 -8 0
-15 -11 -8 0
-16 -11 -8 0
-13 -12 -8 0
-14 -12 -8 0
-15 -12 -8 0
-16 -12 -8 0
-14 -13 -8 0
-15 -13 -8 0
-16 -13 -8 0
-15 -14 -8 0
-16 -14 -8 0
-16 -15 -8 0
-11 -10 -9 0
-12 -10 -9 0
-13 -10 -9 0
-14 -10 -9 0
-15 -10 -9 0
-16 -10 -9 0
-12 -11 -9 0
-13 -11 -9 0
-14 -11 -9 0
-15 -11 -9 0
-16 -11 -9 0
-13 -12 -9 0
-14 -12 -9 0
-15 -12 -9 0
-16 -12 -9 0
-14 -13 -9 0
-15 -13 -9 0
-16 -13 -9 0
-15 -14 -9 0
-16 -14 -9 0
-16 -15 -9 0
-12 -11 -10 0
-13 -11 -10 0
-14 -11 -10 0
-15 -11 -10 0
-16 -11 -10 0
-13 -12 -10 0
-14 -12 -10 0
-15 -12 -10 0
-16 -12 -10 0
-14 -13 -10 0
-15 -13 -10 0
-16 -13 -10 0
-15 -14 -10 0
-16 -14 -10 0
-16 -15 -10 0
-13 -12 -11 0
-14 -12 -11 0
-15 -12 -11 0
-16 -12 -11 0
-14 -13 -11 0
-15 -13 -11 0
-16 -13 -11 0
-15 -14 -11 0
-16 -14 -11 0
-16 -15 -11 0
-14 -13 -12 0
-15 -13 -12 0
-16 -13 -12 0
-15 -14 -12 0
-16 -14 -12 0
-16 -15 -12 0
-15 -14 -13 0
-16 -14 -13 0
-16 -15 -13 0
-16 -15 -14 0
1 3 4 5 6 7 8 9 10 11 12 13 14 15 16 0
2 3 4 5 6 7 8 9 10 11 12 13 14 15 16 0
1 2 4 5 6 7 8 9 10 11 12 13 14 15 16 0
1 2 3 5 6 7 8 9 10 11 12 13 14 15 16 0
1 2 3 4 6 7 8 9 10 11 12 13 14 15 16 0
1 2 3 4 5 7 8 9 10 11 12 13 14 15 16 0
1 2 3 4 5 6 8 9 10 11 12 13 14 15 16 0
1 2 3 4 5 6 7 9 10 11 12 13 14 15 16 0
1 2 3 4 5 6 7 8 10 11 12 13 14 15 16 0
1 2 3 4 5 6 7 8 9 11 12 13 14 15 16 0
1 2 3 4 5 6 7 8 9 10 12 13 14 15 16 0
1 2 3 4 5 6 7 8 9 10 11 13 14 15 16 0
1 2 3 4 5 6 7 8 9 10 11 12 14 15 16 0
1 2 3 4 5 6 7 8 9 10 11 12 13 15 16 0
1 2 3 4 5 6 7 8 9 10 11 12 13 14 16 0
1 2 3 4 5 6 7 8 9 10 11 12 13 14 15 0
1 0
-2 0
-3 0
-4 0
